sat
(:max-memory         18.35
 :memory             18.15
 :nlsat-conflicts    2
 :nlsat-decisions    2
 :nlsat-propagations 23
 :nlsat-stages       7
 :num-allocs         89658
 :rlimit-count       25712
 :time               0.02
 :total-time         0.02)
